language ESSENCE' 1.0
letting lastdx=95
letting cage be [
[8,14,11,0,0, 0,0, 0,0, 0,0],
[2,2,14,0,0, 0,0, 0,0, 0,0],
[10,13,7,0,0, 0,0, 0,0, 0,0],
[14,2,8,0,0, 0,0, 0,0, 0,0],
[3,16,10,0,0, 0,0, 0,0, 0,0],
[32,9,8,9,9,8,9,8,10,8,11],
[9,10,2,0,0, 0,0, 0,0, 0,0],
[12,13,11,0,0, 0,0, 0,0, 0,0],
[3,2,13,0,0, 0,0, 0,0, 0,0],
[5,5,6,6,6,0,0, 0,0, 0,0],
[39,15,12,16,12,16,13,15,13,15,14],
[5,3,10,0,0, 0,0, 0,0, 0,0],
[36,1,7,2,7,3,7,0,0, 0,0],
[7,12,11,0,0, 0,0, 0,0, 0,0],
[4,3,15,0,0, 0,0, 0,0, 0,0],
[23,4,5,4,4,3,4,3,5,0,0],
[38,14,16,13,16,13,15,14,15,0,0],
[22,13,4,12,4,12,5,0,0, 0,0],
[29,10,6,10,5,11,5,11,6,12,6],
[26,3,2,4,2,4,3,0,0, 0,0],
[30,16,6,16,5,15,5,0,0, 0,0],
[1,2,11,0,0, 0,0, 0,0, 0,0],
[27,10,7,11,7,0,0, 0,0, 0,0],
[4,2,9,0,0, 0,0, 0,0, 0,0],
[13,7,2,0,0, 0,0, 0,0, 0,0],
[15,10,15,10,14,0,0, 0,0, 0,0],
[20,10,4,10,3,0,0, 0,0, 0,0],
[53,5,7,6,7,7,7,7,6,8,6],
[4,6,1,0,0, 0,0, 0,0, 0,0],
[11,9,2,0,0, 0,0, 0,0, 0,0],
[50,15,16,16,16,16,15,15,15,16,14],
[33,5,12,5,13,4,13,3,13,0,0],
[49,2,5,2,6,1,6,1,5,1,4],
[45,5,10,6,10,6,9,7,9,7,10],
[30,3,6,4,6,4,7,4,8,5,8],
[16,16,8,0,0, 0,0, 0,0, 0,0],
[20,1,8,1,9,0,0, 0,0, 0,0],
[52,3,16,2,16,2,15,1,15,1,16],
[19,5,2,5,3,5,4,0,0, 0,0],
[54,9,3,9,4,9,5,8,5,8,4],
[37,15,3,15,4,16,4,16,3,16,2],
[17,3,9,3,8,0,0, 0,0, 0,0],
[29,3,1,4,1,5,1,0,0, 0,0],
[5,11,1,0,0, 0,0, 0,0, 0,0],
[21,9,12,9,11,9,10,10,10,0,0],
[6,15,2,14,2,0,0, 0,0, 0,0],
[32,2,3,2,4,3,3,0,0, 0,0],
[13,4,11,0,0, 0,0, 0,0, 0,0],
[9,16,9,0,0, 0,0, 0,0, 0,0],
[45,3,11,3,12,4,12,2,12,1,12],
[16,4,16,4,15,0,0, 0,0, 0,0],
[23,8,3,7,3,7,4,0,0, 0,0],
[32,7,16,7,15,6,15,6,16,0,0],
[30,7,1,8,1,8,2,0,0, 0,0],
[65,10,11,11,11,11,10,12,10,13,10],
[46,9,15,9,16,10,16,11,16,12,16],
[18,14,14,14,13,13,13,0,0, 0,0],
[20,13,8,12,8,12,7,0,0, 0,0],
[5,6,3,6,2,0,0, 0,0, 0,0],
[9,9,1,10,1,0,0, 0,0, 0,0],
[18,14,12,13,12,12,12,0,0, 0,0],
[9,5,11,0,0, 0,0, 0,0, 0,0],
[19,1,13,1,14,0,0, 0,0, 0,0],
[28,12,14,13,14,0,0, 0,0, 0,0],
[25,11,15,11,14,12,15,0,0, 0,0],
[2,11,4,0,0, 0,0, 0,0, 0,0],
[23,9,14,8,14,0,0, 0,0, 0,0],
[40,16,1,15,1,14,1,13,1,13,2],
[14,14,10,0,0, 0,0, 0,0, 0,0],
[29,5,9,4,9,4,10,0,0, 0,0],
[10,8,16,8,15,0,0, 0,0, 0,0],
[11,1,11,0,0, 0,0, 0,0, 0,0],
[12,16,11,15,11,0,0, 0,0, 0,0],
[31,6,14,7,14,7,13,0,0, 0,0],
[6,1,1,0,0, 0,0, 0,0, 0,0],
[6,1,2,1,3,0,0, 0,0, 0,0],
[17,1,10,2,10,0,0, 0,0, 0,0],
[23,2,1,2,2,0,0, 0,0, 0,0],
[14,5,5,0,0, 0,0, 0,0, 0,0],
[15,6,8,0,0, 0,0, 0,0, 0,0],
[5,6,11,0,0, 0,0, 0,0, 0,0],
[45,6,12,6,13,7,12,7,11,0,0],
[10,7,8,0,0, 0,0, 0,0, 0,0],
[12,8,7,8,8,0,0, 0,0, 0,0],
[26,8,12,8,13,9,13,0,0, 0,0],
[23,9,6,9,7,0,0, 0,0, 0,0],
[1,10,8,0,0, 0,0, 0,0, 0,0],
[35,10,9,11,9,11,8,12,9,13,9],
[27,11,2,11,3,0,0, 0,0, 0,0],
[9,13,5,0,0, 0,0, 0,0, 0,0],
[34,13,6,14,6,15,6,0,0, 0,0],
[16,14,3,0,0, 0,0, 0,0, 0,0],
[27,14,4,14,5,0,0, 0,0, 0,0],
[15,14,7,15,7,16,7,15,8,0,0],
[16,14,8,14,9,0,0, 0,0, 0,0],
[22,15,9,15,10,0,0, 0,0, 0,0]
]
